
Gurobi 12.0.1 (win64, C++) logging started Thu Apr 17 14:21:01 2025

Set parameter Username
Set parameter LicenseID to value 2618661
Academic license - for non-commercial use only - expires 2026-02-05
Set parameter Threads to value 8
Set parameter LazyConstraints to value 1
Set parameter PreCrush to value 1
Set parameter Seed to value 10
Set parameter Cuts to value -1
Set parameter TimeLimit to value 28800
Set parameter NumericFocus to value 0
Set parameter SolutionLimit to value 10000
Gurobi Optimizer version 12.0.1 build v12.0.1rc0 (win64 - Windows Server 2022.0 (20348.2))

CPU model: AMD EPYC 7513 32-Core Processor, instruction set [SSE2|AVX|AVX2]
Thread count: 18 physical cores, 18 logical processors, using up to 8 threads

Non-default parameters:
SolutionLimit  10000
TimeLimit  28800
PreCrush  1
Seed  10
Threads  8
LazyConstraints  1

Optimize a model with 256 rows, 484 columns and 1390 nonzeros
Model fingerprint: 0xcf977cd3
Variable types: 0 continuous, 484 integer (484 binary)
Coefficient statistics:
  Matrix range     [1e+00, 1e+00]
  Objective range  [3e+00, 8e+01]
  Bounds range     [1e+00, 1e+00]
  RHS range        [1e+00, 6e+00]

User MIP start produced solution with objective 456.914 (0.02s)
Loaded user MIP start with objective 456.914

Presolve removed 3 rows and 24 columns
Presolve time: 0.02s
Presolved: 253 rows, 460 columns, 1340 nonzeros
Variable types: 0 continuous, 460 integer (460 binary)

Root relaxation: objective 3.091569e+02, 73 iterations, 0.00 seconds (0.00 work units)

    Nodes    |    Current Node    |     Objective Bounds      |     Work
 Expl Unexpl |  Obj  Depth IntInf | Incumbent    BestBd   Gap | It/Node Time

     0     0  309.15693    0   20  456.91433  309.15693  32.3%     -    0s
     0     0  319.06663    0   22  456.91433  319.06663  30.2%     -    0s
     0     0  357.13980    0    -  456.91433  357.13980  21.8%     -    0s
     0     0  366.36155    0    -  456.91433  366.36155  19.8%     -    0s
     0     0  368.20760    0    -  456.91433  368.20760  19.4%     -    1s
     0     0  369.28167    0   37  456.91433  369.28167  19.2%     -    1s
     0     0  369.73979    0   33  456.91433  369.73979  19.1%     -    1s
     0     2  374.30360    0   17  456.91433  374.30360  18.1%     -    1s
    11     8  379.68621    3    4  456.91433  376.86192  17.5%  32.2    6s
H   63    54                     415.8946410  378.78590  8.92%  24.2    9s
    78    68  388.78094    9    -  415.89464  378.78590  8.92%  25.0   11s
H  147   126                     397.6268554  379.78581  4.49%  24.4   12s
   180   147  384.89453    5   18  397.62686  380.83544  4.22%  23.9   16s
   326   186  395.93151    8   25  397.62686  381.95581  3.94%  21.6   20s
   611   221  397.22103    9    9  397.62686  386.24835  2.86%  20.7   26s
H  648   226                     395.6358416  386.43459  2.33%  20.4   26s

Cutting planes:
  Lazy constraints: 1379

Explored 1357 nodes (24592 simplex iterations) in 28.97 seconds (1.80 work units)
Thread count was 8 (of 18 available processors)

Solution count 4: 395.636 397.627 415.895 456.914 

Optimal solution found (tolerance 1.00e-04)
Best objective 3.956358415971e+02, best bound 3.956358415971e+02, gap 0.0000%

User-callback calls 3088, time in user-callback 27.00 sec
### START EXACT APPROACH ###
ProblemVariant: 2
### START PREPROCESSING ###
## Start infeasible path procedure ## 
Deleted arcs: 2
Infeasible tail paths: 2
Infeasible 2-node combinations: 1
## Start extended infeasible path procedure ##
Deleted arcs: 2
Infeasible tail paths: 2
Infeasible 2-node combinations: 1
## Start start solution procedure ##
Start solution with 5 Vehicles and total costs 456.914 in 3.50206 s.
### END PREPROCESSING ###
Route 0 0-9-7-5-2-1-6-0 : weight util 0.933333 | volume util 0.675956 | infeasible with packing heuristic | feasible with CP model
Route 1 0-10-8-3-4-11-0 : weight util 0.683333 | volume util 0.761089 | infeasible with packing heuristic | feasible with CP model
Route 2 0-12-15-18-20-17-0 : weight util 0.983333 | volume util 0.726644 | infeasible with packing heuristic | feasible with CP model
Route 3 0-14-21-19-13-0 : weight util 0.800000 | volume util 0.627911 | infeasible with packing heuristic | feasible with CP model
Route 4 0-16-0 : weight util 0.350000 | volume util 0.143200 | feasible with packing heuristic | feasible with CP model
